27      4       
10      10      10      10      
0       0       0       0       0       1       2       
7       1       1       1       1       1       3       
8       2       2       5       1       4       4       5       6       7       
3       2       1       3       1       5       8       9       10      13      14      
2       2       2       1       2       5       8       9       10      13      14      
1       2       4       4       3       3       8       14      17      
2       2       3       2       1       3       11      13      16      
9       4       2       2       4       3       12      16      19      
5       3       1       4       1       3       12      16      19      
6       5       1       1       3       2       12      17      
6       3       4       2       2       2       12      17      
10      3       2       4       4       1       15      
8       2       1       3       4       1       15      
5       1       3       2       2       1       15      
5       2       5       2       2       3       18      20      22      
4       2       2       1       1       3       20      21      22      
7       3       3       2       6       2       18      20      
3       4       2       2       6       3       21      24      26      
8       1       2       2       2       3       21      24      26      
9       3       2       2       3       4       23      24      25      26      
9       2       1       4       1       2       23      25      
7       5       3       1       2       2       23      24      
6       2       2       3       3       1       27      
4       2       3       4       2       1       27      
10      3       5       2       3       1       27      
3       1       5       3       2       1       27      
0       0       0       0       0       0       
